750
1000
700
699
699
697
696
696
696
694
694
694
693
691
691
689
688
686
686
686
685
685
685
685
685
684
682
682
682
682
681
680
680
678
677
677
677
677
676
676
675
675
675
674
674
673
673
672
672
671
671
670
670
670
669
668
665
665
665
664
662
660
659
658
657
656
655
655
653
652
651
649
649
649
649
649
648
647
647
647
646
646
646
645
645
644
643
642
641
641
640
636
636
635
634
632
632
631
630
629
629
627
626
626
626
626
625
624
624
623
623
623
620
619
619
618
617
616
616
615
613
613
611
611
610
610
608
608
608
606
606
605
605
604
604
604
603
602
602
598
598
597
596
594
592
591
591
591
591
589
589
588
587
587
586
585
585
585
584
582
582
581
581
580
578
577
577
577
575
574
574
573
572
572
572
571
571
571
569
568
567
567
563
562
562
559
559
558
557
557
553
551
551
550
549
547
547
546
545
544
544
544
544
543
542
542
541
539
538
536
534
533
533
532
531
531
530
530
528
527
526
525
525
524
522
521
521
520
520
518
517
517
515
514
514
513
513
513
510
509
509
508
507
506
505
505
504
504
503
503
502
502
500
500
500
499
499
499
499
497
497
495
495
494
494
492
491
491
490
489
489
489
487
486
485
484
483
483
482
481
480
479
479
477
476
476
476
475
474
473
473
472
472
471
471
470
470
466
466
466
465
464
463
459
458
454
452
452
451
450
450
449
449
448
446
446
444
444
444
442
442
442
441
440
440
439
439
439
439
438
438
437
437
437
437
437
436
435
435
435
434
432
430
429
428
427
425
425
423
423
423
421
420
420
420
420
419
418
417
415
415
412
410
409
406
405
405
404
404
404
402
402
402
401
401
399
399
395
395
395
392
392
392
390
389
389
387
387
387
386
386
384
382
382
382
381
381
381
380
380
378
377
376
376
373
373
371
371
369
369
368
367
366
365
364
362
362
361
361
359
358
358
357
356
355
355
354
354
353
352
352
352
350
350
350
349
349
349
348
347
345
344
341
340
340
340
339
339
338
338
336
335
335
335
335
331
331
327
326
325
325
325
324
323
321
320
320
320
318
316
316
316
314
313
313
312
310
310
309
306
305
305
304
301
300
300
300
300
297
296
295
294
292
292
292
292
292
291
288
286
286
283
281
280
279
278
278
277
277
277
277
277
276
273
273
273
273
273
272
272
270
270
270
269
269
268
268
266
264
264
264
263
263
263
261
260
260
259
258
258
257
256
255
255
254
253
252
251
250
250
249
249
249
248
248
248
247
247
247
246
246
245
242
241
241
240
237
237
236
236
234
233
233
232
232
231
231
230
228
227
226
226
226
224
224
221
220
219
218
218
218
217
217
217
215
215
214
214
214
214
213
212
212
211
211
211
211
211
211
209
208
208
208
207
205
204
204
204
202
202
202
201
201
201
200
200
199
198
197
197
197
195
193
193
192
192
191
191
191
191
191
189
187
187
186
186
183
183
183
181
181
181
179
178
178
177
176
174
172
171
171
170
170
169
169
167
166
164
162
161
161
160
160
160
159
158
157
157
156
155
155
154
153
153
150
149
149
148
148
148
148
148
147
147
146
146
146
144
143
140
140
139
138
138
138
135
135
134
134
134
134
133
133
130
130
130
127
126
125
125
124
123
122
122
120
120
120
119
119
118
118
118
118
117
116
116
114
114
112
109
109
105
105
104
103
103
102
101
101
100
100
100
